Grasp exp. instance_n_25_m_5_id_2.lp tipoLifted 0 szPool 5 nIteration 20 alpha 0.4 
Academic license - for non-commercial use only
Read LP format model from file ../input/instancesGenerated/instance_n_25_m_5_id_2.lp
Reading time = 0.00 seconds
: 5 rows, 25 columns, 125 nonzeros
Optimize a model with 5 rows, 25 columns and 125 nonzeros
Variable types: 0 continuous, 25 integer (25 binary)
Coefficient statistics:
  Matrix range     [1e+00, 1e+01]
  Objective range  [1e+00, 1e+01]
  Bounds range     [1e+00, 1e+00]
  RHS range        [7e+01, 8e+01]
Found heuristic solution: objective 63.0000000

Explored 0 nodes (0 simplex iterations) in 0.00 seconds
Thread count was 1 (of 8 available processors)

Solution count 1: 63 
No other solutions better than 0

Solution limit reached
Best objective 6.300000000000e+01, best bound -, gap -
C_1:	 5.00 x_1  = 0.783784 + 10.00 x_2  = 1.000000 + 2.00 x_3  = 0.000000 + 1.00 x_4  = 1.000000 + 6.00 x_5  = 1.000000 + 10.00 x_6  = 0.054054 + 6.00 x_7  = 0.000000 + 6.00 x_8  = 0.256757 + 1.00 x_9  = 0.000000 + 1.00 x_10  = 1.000000 + 5.00 x_11  = 1.000000 + 7.00 x_12  = 0.000000 + 7.00 x_13  = 0.000000 + 9.00 x_14  = 1.000000 + 10.00 x_15  = 1.000000 + 5.00 x_16  = 1.000000 + 5.00 x_17  = 1.000000 + 1.00 x_18  = 0.000000 + 8.00 x_19  = 0.000000 + 6.00 x_20  = 0.000000 + 2.00 x_21  = 0.000000 + 7.00 x_22  = 0.000000 + 7.00 x_23  = 0.000000 + 2.00 x_24  = 1.000000 + 9.00 x_25  = 1.000000 <= 69.00
C_2:	 8.00 x_1  = 0.783784 + 6.00 x_2  = 1.000000 + 6.00 x_3  = 0.000000 + 1.00 x_4  = 1.000000 + 1.00 x_5  = 1.000000 + 4.00 x_6  = 0.054054 + 7.00 x_7  = 0.000000 + 2.00 x_8  = 0.256757 + 7.00 x_9  = 0.000000 + 8.00 x_10  = 1.000000 + 9.00 x_11  = 1.000000 + 6.00 x_12  = 0.000000 + 5.00 x_13  = 0.000000 + 5.00 x_14  = 1.000000 + 9.00 x_15  = 1.000000 + 8.00 x_16  = 1.000000 + 9.00 x_17  = 1.000000 + 5.00 x_18  = 0.000000 + 4.00 x_19  = 0.000000 + 10.00 x_20  = 0.000000 + 5.00 x_21  = 0.000000 + 8.00 x_22  = 0.000000 + 6.00 x_23  = 0.000000 + 7.00 x_24  = 1.000000 + 5.00 x_25  = 1.000000 <= 75.00
C_3:	 1.00 x_1  = 0.783784 + 10.00 x_2  = 1.000000 + 3.00 x_3  = 0.000000 + 8.00 x_4  = 1.000000 + 4.00 x_5  = 1.000000 + 1.00 x_6  = 0.054054 + 7.00 x_7  = 0.000000 + 9.00 x_8  = 0.256757 + 9.00 x_9  = 0.000000 + 7.00 x_10  = 1.000000 + 1.00 x_11  = 1.000000 + 2.00 x_12  = 0.000000 + 5.00 x_13  = 0.000000 + 2.00 x_14  = 1.000000 + 10.00 x_15  = 1.000000 + 4.00 x_16  = 1.000000 + 1.00 x_17  = 1.000000 + 8.00 x_18  = 0.000000 + 9.00 x_19  = 0.000000 + 7.00 x_20  = 0.000000 + 6.00 x_21  = 0.000000 + 6.00 x_22  = 0.000000 + 7.00 x_23  = 0.000000 + 10.00 x_24  = 1.000000 + 1.00 x_25  = 1.000000 <= 69.00
C_4:	 6.00 x_1  = 0.783784 + 6.00 x_2  = 1.000000 + 8.00 x_3  = 0.000000 + 2.00 x_4  = 1.000000 + 5.00 x_5  = 1.000000 + 5.00 x_6  = 0.054054 + 4.00 x_7  = 0.000000 + 4.00 x_8  = 0.256757 + 7.00 x_9  = 0.000000 + 1.00 x_10  = 1.000000 + 7.00 x_11  = 1.000000 + 10.00 x_12  = 0.000000 + 9.00 x_13  = 0.000000 + 7.00 x_14  = 1.000000 + 8.00 x_15  = 1.000000 + 7.00 x_16  = 1.000000 + 7.00 x_17  = 1.000000 + 1.00 x_18  = 0.000000 + 2.00 x_19  = 0.000000 + 1.00 x_20  = 0.000000 + 10.00 x_21  = 0.000000 + 5.00 x_22  = 0.000000 + 3.00 x_23  = 0.000000 + 7.00 x_24  = 1.000000 + 5.00 x_25  = 1.000000 <= 68.00
C_5:	 9.00 x_1  = 0.783784 + 4.00 x_2  = 1.000000 + 10.00 x_3  = 0.000000 + 7.00 x_4  = 1.000000 + 6.00 x_5  = 1.000000 + 10.00 x_6  = 0.054054 + 3.00 x_7  = 0.000000 + 1.00 x_8  = 0.256757 + 10.00 x_9  = 0.000000 + 4.00 x_10  = 1.000000 + 7.00 x_11  = 1.000000 + 4.00 x_12  = 0.000000 + 7.00 x_13  = 0.000000 + 3.00 x_14  = 1.000000 + 2.00 x_15  = 1.000000 + 10.00 x_16  = 1.000000 + 1.00 x_17  = 1.000000 + 3.00 x_18  = 0.000000 + 10.00 x_19  = 0.000000 + 10.00 x_20  = 0.000000 + 10.00 x_21  = 0.000000 + 7.00 x_22  = 0.000000 + 6.00 x_23  = 0.000000 + 2.00 x_24  = 1.000000 + 8.00 x_25  = 1.000000 <= 77.00
Solution initial: 94.743243 
Number Constraints Used in Cover:5
GRASP Method!
Number cuts repeat: 0
value: 94.743243
Number Constraints Used in Cover:9
GRASP Method!
Number cuts repeat: 0
value: 94.743243
Number Constraints Used in Cover:12
GRASP Method!
Number cuts repeat: 0
value: 94.743243
Number Constraints Used in Cover:14
GRASP Method!
Number cuts repeat: 0
value: 94.743243
Number Constraints Used in Cover:15
GRASP Method!
Number cuts repeat: 0
value: 94.743243
Number Constraints Used in Cover:20
GRASP Method!
Number cuts repeat: 0
value: 94.743243
Number Constraints Used in Cover:22
GRASP Method!
Number cuts repeat: 0
value: 94.743243
Number Constraints Used in Cover:27
GRASP Method!
Number cuts repeat: 0
value: 94.743243
Number Constraints Used in Cover:32
GRASP Method!
Number cuts repeat: 0
value: 94.743243
Number Constraints Used in Cover:37
GRASP Method!
Number cuts repeat: 0
value: 94.743243
Number Constraints Used in Cover:40
GRASP Method!
Number cuts repeat: 0
value: 94.743243
Number Constraints Used in Cover:48
GRASP Method!
Number cuts repeat: 0
value: 94.743243
Number Constraints Used in Cover:56
GRASP Method!
Number cuts repeat: 0
value: 94.743243
Number Constraints Used in Cover:60
GRASP Method!
Number cuts repeat: 0
value: 94.743243
Number Constraints Used in Cover:65
GRASP Method!
Number cuts repeat: 0
value: 94.743243
Number Constraints Used in Cover:72
GRASP Method!
Number cuts repeat: 0
value: 94.743243
Number Constraints Used in Cover:76
GRASP Method!
Number cuts repeat: 0
value: 94.743243
Number Constraints Used in Cover:79
GRASP Method!
Number cuts repeat: 0
value: 94.743243
Number Constraints Used in Cover:81
GRASP Method!
Number cuts repeat: 0
value: 94.743243
Number Constraints Used in Cover:88
GRASP Method!
Number cuts repeat: 0
value: 94.743243
Number Constraints Used in Cover:94
GRASP Method!
Number cuts repeat: 0
value: 94.743243
Number Constraints Used in Cover:100
GRASP Method!
Number cuts repeat: 0
value: 94.743243
Number Constraints Used in Cover:102
GRASP Method!
Number cuts repeat: 0
value: 94.743243
Number Constraints Used in Cover:105
GRASP Method!
Number cuts repeat: 0
value: 94.743243
Number Constraints Used in Cover:109
GRASP Method!
Number cuts repeat: 0
value: 94.743243
Number Constraints Used in Cover:111
GRASP Method!
Number cuts repeat: 0
value: 94.743243
Number Constraints Used in Cover:115
GRASP Method!
Number cuts repeat: 0
value: 94.743243
Number Constraints Used in Cover:120
GRASP Method!
Number cuts repeat: 0
value: 94.743243
Number Constraints Used in Cover:127
GRASP Method!
Number cuts repeat: 0
value: 94.743243
Number Constraints Used in Cover:132
GRASP Method!
Number cuts repeat: 0
value: 94.743243
Number Constraints Used in Cover:137
GRASP Method!
Number cuts repeat: 0
value: 94.743243
Number Constraints Used in Cover:144
GRASP Method!
Number cuts repeat: 0
value: 94.743243
Number Constraints Used in Cover:150
GRASP Method!
Number cuts repeat: 0
value: 94.743243
Number Constraints Used in Cover:154
GRASP Method!
Number cuts repeat: 0
value: 94.743243
Number Constraints Used in Cover:160
GRASP Method!
Number cuts repeat: 0
value: 94.743243
Number Constraints Used in Cover:166
GRASP Method!
Number cuts repeat: 0
value: 94.743243
Number Constraints Used in Cover:174
GRASP Method!
Number cuts repeat: 0
value: 94.743243
Number Constraints Used in Cover:178
GRASP Method!
Number cuts repeat: 0
value: 94.743243
Number Constraints Used in Cover:184
GRASP Method!
Number cuts repeat: 0
value: 94.743243
Number Constraints Used in Cover:191
GRASP Method!
Number cuts repeat: 0
value: 94.743243
Number Constraints Used in Cover:196
GRASP Method!
Number cuts repeat: 0
value: 94.743243
Number Constraints Used in Cover:202
GRASP Method!
Number cuts repeat: 0
value: 94.743243
Number Constraints Used in Cover:205
GRASP Method!
Number cuts repeat: 0
value: 94.743243
Number Constraints Used in Cover:210
GRASP Method!
Number cuts repeat: 0
value: 94.743243
Number Constraints Used in Cover:219
GRASP Method!
Number cuts repeat: 0
value: 94.743243
Number Constraints Used in Cover:225
GRASP Method!
Number cuts repeat: 0
value: 94.743243
Number Constraints Used in Cover:228
GRASP Method!
Number cuts repeat: 0
value: 94.743243
Number Constraints Used in Cover:233
GRASP Method!
Number cuts repeat: 0
value: 94.743243
Number Constraints Used in Cover:235
GRASP Method!
Number cuts repeat: 0
value: 94.743243
Number Constraints Used in Cover:242
GRASP Method!
Number cuts repeat: 0
value: 94.743243
Number Constraints Used in Cover:248
GRASP Method!
Number cuts repeat: 0
value: 94.743243
Number Constraints Used in Cover:251
GRASP Method!
Number cuts repeat: 0
value: 94.743243
Number Constraints Used in Cover:253
GRASP Method!
Number cuts repeat: 0
value: 94.743243
Number Constraints Used in Cover:259
GRASP Method!
Number cuts repeat: 0
value: 94.743243
Number Constraints Used in Cover:263
GRASP Method!
Number cuts repeat: 0
value: 94.743243
Number Constraints Used in Cover:265
GRASP Method!
Number cuts repeat: 0
value: 94.743243
Number Constraints Used in Cover:268
GRASP Method!
Number cuts repeat: 0
value: 94.743243
Number Constraints Used in Cover:272
GRASP Method!
Number cuts repeat: 0
value: 94.743243
Number Constraints Used in Cover:272
GRASP Method!
Number cuts repeat: 0
value: 94.743243
Number Constraints Used in Cover:277
GRASP Method!
Number cuts repeat: 0
value: 94.743243
Number Constraints Used in Cover:279
GRASP Method!
Number cuts repeat: 0
value: 94.743243
Number Constraints Used in Cover:282
GRASP Method!
Number cuts repeat: 0
value: 94.743243
Number Constraints Used in Cover:289
GRASP Method!
Number cuts repeat: 0
value: 94.743243
Number Constraints Used in Cover:294
GRASP Method!
Number cuts repeat: 0
value: 94.743243
Number Constraints Used in Cover:299
GRASP Method!
Number cuts repeat: 0
value: 94.743243
Number Constraints Used in Cover:301
GRASP Method!
Number cuts repeat: 0
value: 94.743243
Number Constraints Used in Cover:303
GRASP Method!
Number cuts repeat: 0
value: 94.743243
Number Constraints Used in Cover:307
GRASP Method!
Number cuts repeat: 0
value: 94.743243
Number Constraints Used in Cover:313
GRASP Method!
Number cuts repeat: 0
value: 94.743243
Number Constraints Used in Cover:322
GRASP Method!
Number cuts repeat: 0
value: 94.743243
Number Constraints Used in Cover:326
GRASP Method!
Number cuts repeat: 0
value: 94.743243
Number Constraints Used in Cover:331
GRASP Method!
Number cuts repeat: 0
value: 94.743243
Number Constraints Used in Cover:333
GRASP Method!
Number cuts repeat: 0
value: 94.743243
Number Constraints Used in Cover:338
GRASP Method!
Number cuts repeat: 0
value: 94.743243
Number Constraints Used in Cover:343
GRASP Method!
Number cuts repeat: 0
value: 94.743243
Number Constraints Used in Cover:348
GRASP Method!
Number cuts repeat: 0
value: 94.743243
Number Constraints Used in Cover:354
GRASP Method!
Number cuts repeat: 0
value: 94.743243
Number Constraints Used in Cover:360
GRASP Method!
Number cuts repeat: 0
value: 94.743243
Number Constraints Used in Cover:361
GRASP Method!
Number cuts repeat: 0
value: 94.743243
Number Constraints Used in Cover:369
GRASP Method!
Number cuts repeat: 0
value: 94.743243
Number Constraints Used in Cover:376
GRASP Method!
Number cuts repeat: 0
value: 94.743243
Number Constraints Used in Cover:378
GRASP Method!
Number cuts repeat: 0
value: 94.743243
Number Constraints Used in Cover:381
GRASP Method!
Number cuts repeat: 0
value: 94.743243
Number Constraints Used in Cover:385
GRASP Method!
Number cuts repeat: 0
value: 94.743243
Number Constraints Used in Cover:391
GRASP Method!
Number cuts repeat: 0
value: 94.743243
Number Constraints Used in Cover:397
GRASP Method!
Number cuts repeat: 0
value: 94.743243
Number Constraints Used in Cover:402
GRASP Method!
Number cuts repeat: 0
value: 94.743243
Number Constraints Used in Cover:407
GRASP Method!
Number cuts repeat: 0
value: 94.743243
Number Constraints Used in Cover:410
GRASP Method!
Number cuts repeat: 0
value: 94.743243
Number Constraints Used in Cover:415
GRASP Method!
Number cuts repeat: 0
value: 94.743243
Number Constraints Used in Cover:419
GRASP Method!
Number cuts repeat: 0
value: 94.743243
Number Constraints Used in Cover:421
GRASP Method!
Number cuts repeat: 0
value: 94.743243
Number Constraints Used in Cover:423
GRASP Method!
Number cuts repeat: 0
value: 94.743243
Number Constraints Used in Cover:426
GRASP Method!
Number cuts repeat: 0
value: 94.743243
Number Constraints Used in Cover:433
GRASP Method!
Number cuts repeat: 0
value: 94.743243
Number Constraints Used in Cover:439
GRASP Method!
Number cuts repeat: 0
value: 94.743243
Number Constraints Used in Cover:445
GRASP Method!
Number cuts repeat: 0
value: 94.743243
Number Constraints Used in Cover:453
GRASP Method!
Number cuts repeat: 0
value: 94.743243
Number Constraints Used in Cover:455
GRASP Method!
Number cuts repeat: 0
value: 94.743243
Number Constraints Used in Cover:464
GRASP Method!
Number cuts repeat: 0
value: 94.743243
Number Constraints Used in Cover:469
GRASP Method!
Number cuts repeat: 0
value: 94.743243
Number Constraints Used in Cover:474
GRASP Method!
Number cuts repeat: 0
value: 94.743243
Number Constraints Used in Cover:479
GRASP Method!
Number cuts repeat: 0
value: 94.743243
Number Constraints Used in Cover:481
GRASP Method!
Number cuts repeat: 0
value: 94.743243
Number Constraints Used in Cover:483
GRASP Method!
Number cuts repeat: 0
value: 94.743243
Number Constraints Used in Cover:487
GRASP Method!
Number cuts repeat: 0
value: 94.743243
Number Constraints Used in Cover:492
GRASP Method!
Number cuts repeat: 0
value: 94.743243
Number Constraints Used in Cover:494
GRASP Method!
Number cuts repeat: 0
value: 94.743243
Number Constraints Used in Cover:498
GRASP Method!
Number cuts repeat: 0
value: 94.743243
Number Constraints Used in Cover:500
GRASP Method!
Number cuts repeat: 0
value: 94.743243
Number Constraints Used in Cover:507
GRASP Method!
Number cuts repeat: 0
value: 94.743243
Number Constraints Used in Cover:513
GRASP Method!
Number cuts repeat: 0
value: 94.743243
Number Constraints Used in Cover:520
GRASP Method!
Number cuts repeat: 0
value: 94.743243
Number Constraints Used in Cover:526
GRASP Method!
Number cuts repeat: 0
value: 94.743243
Number Constraints Used in Cover:531
GRASP Method!
Number cuts repeat: 0
value: 94.743243
Number Constraints Used in Cover:533
GRASP Method!
Number cuts repeat: 0
value: 94.743243
Number Constraints Used in Cover:538
GRASP Method!
Number cuts repeat: 0
value: 94.743243
Number Constraints Used in Cover:543
GRASP Method!
Number cuts repeat: 0
value: 94.743243
Number Constraints Used in Cover:545
GRASP Method!
Number cuts repeat: 0
value: 94.743243
Number Constraints Used in Cover:549
GRASP Method!
Number cuts repeat: 0
value: 94.743243
Number Constraints Used in Cover:554
GRASP Method!
Number cuts repeat: 0
value: 94.743243
Number Constraints Used in Cover:560
GRASP Method!
Number cuts repeat: 0
value: 94.743243
Number Constraints Used in Cover:568
GRASP Method!
Number cuts repeat: 0
value: 94.743243
Number Constraints Used in Cover:573
GRASP Method!
Number cuts repeat: 0
value: 94.743243
Number Constraints Used in Cover:579
GRASP Method!
Number cuts repeat: 0
value: 94.743243
Number Cuts Final: 576
